
Gurobi 11.0.2 (win64) logging started Sat Jun  1 20:43:44 2024

Set parameter LogFile to value "gurobi.log"
Gurobi Optimizer version 11.0.2 build v11.0.2rc0 (win64 - Windows 11.0 (22631.2))

CPU model: 11th Gen Intel(R) Core(TM) i5-11300H @ 3.10GHz, instruction set [SSE2|AVX|AVX2|AVX512]
Thread count: 4 physical cores, 8 logical processors, using up to 8 threads

Optimize a model with 8 rows, 17 columns and 28 nonzeros
Model fingerprint: 0xc8812966
Coefficient statistics:
  Matrix range     [1e+00, 1e+00]
  Objective range  [1e+00, 1e+00]
  Bounds range     [1e+00, 2e+01]
  RHS range        [0e+00, 0e+00]
Presolve removed 2 rows and 1 columns
Presolve time: 0.00s
Presolved: 6 rows, 16 columns, 27 nonzeros

Iteration    Objective       Primal Inf.    Dual Inf.      Time
       0    2.2000000e+01   2.499000e+01   0.000000e+00      0s
       7    2.2000000e+01   0.000000e+00   0.000000e+00      0s

Solved in 7 iterations and 0.00 seconds (0.00 work units)
Optimal objective  2.200000000e+01
Max flow: 22.0
Flow values:{
('source', '1'): 9.0, ('2', 'sink'): 4.0, 
('3', 'sink'): 17.0, ('4', 'sink'): 1.0, 
('source', '5'): 5.0, ('source', '6'): 8.0, 
('1', '2'): 0.0, ('1', '3'): 9.0, 
('1', '5'): 0.0, ('2', '3'): 6.0, 
('4', '2'): 3.0, ('4', '3'): 2.0, 
('5', '3'): 0.0, ('5', '4'): 5.0, ('5', '6'): 0.0, 
('6', '2'): 7.0, ('6', '4'): 1.0}